 CRYSTAL
 PRIMVEC
5.8089197 .0000000 .0000000
.0000000 9.8388639 .0000000
.0000000 .0000000 4.7759340
 PRIMCOORD
          24  1
  26  1.4522299 2.6997843 -.2091859
  26  -1.4522299 2.2196477 2.1787811
  26  -1.4522299 -2.6997843 .2091859
  26  1.4522299 -2.2196477 -2.1787811
  15  1.4522299 1.0055319 1.9261342
  15  -1.4522299 3.9139001 -.4618328
  15  -1.4522299 -1.0055319 -1.9261342
  15  1.4522299 -3.9139001 .4618328
   8  1.4522299 1.1432760 -1.3740362
   8  -1.4522299 3.7761560 1.0139308
   8  -1.4522299 -1.1432760 1.3740362
   8  1.4522299 -3.7761560 -1.0139308
   8  1.4522299 4.3605845 .7135245
   8  -1.4522299 .5588475 -1.6744424
   8  -1.4522299 -4.3605845 -.7135245
   8  1.4522299 -.5588475 1.6744424
   8  .2567542 1.6342353 1.2235943
   8  -.2567542 3.2851967 -1.1643727
   8  -.2567542 -1.6342353 -1.2235943
   8  .2567542 -3.2851967 1.1643727
   8  -2.6477056 -1.6342353 -1.2235943
   8  2.6477056 -3.2851967 1.1643727
   8  2.6477056 1.6342353 1.2235943
   8  -2.6477056 3.2851967 -1.1643727
 
